50
    1   513   485
    2   375   326
    3   245   248
    4   441   421
    5   332   322
    6   295   295
    7    28    43
    8   382   345
    9   407   455
   10   257   252
   11     2     9
   12   412   401
   13   143   122
   14    96    94
   15   190   238
   16    68    74
   17   208   215
   18   348   382
   19   333   367
   20   529   484
   21   266   299
   22   412   433
   23   182   182
   24    73    72
   25   399   374
   26   103   138
   27   395   356
   28   166   145
   29   478   495
   30    75    29
   31   218   199
   32   256   277
   33   129    97
   34   179   219
   35   230   242
   36   105   107
   37   162   122
   38    56    70
   39    50    98
   40   118   100
   41   118   145
   42   226   267
   43   453   472
   44   362   395
   45   175   213
   46   235   248
   47   454   487
   48   468   423
   49    53    29
   50   154   174
2080
